# Solution for model Master problem
# Objective value = 0
X_0_6 1
X_1_6 0
X_2_6 0
X_3_6 0
X_4_6 0
X_5_6 0
X_6_6 1
X_0_8 0
X_1_8 0
X_2_8 0
X_3_8 0
X_4_8 0
X_5_8 0
X_6_8 1
X_0_10 0
X_1_10 0
X_2_10 0
X_3_10 0
X_4_10 0
X_5_10 0
X_6_10 1
X_0_14 0
X_1_14 0
X_2_14 0
X_3_14 0
X_4_14 0
X_5_14 0
X_6_14 1
X_0_16 0
X_1_16 0
X_2_16 1
X_3_16 0
X_4_16 0
X_5_16 0
X_6_16 1
X_0_18 0
X_1_18 0
X_2_18 0
X_3_18 1
X_4_18 0
X_5_18 0
X_6_18 1
X_0_22 0
X_1_22 0
X_2_22 0
X_3_22 0
X_4_22 0
X_5_22 0
X_6_22 1
X_0_24 0
X_1_24 0
X_2_24 0
X_3_24 0
X_4_24 0
X_5_24 0
X_6_24 1
X_0_28 0
X_1_28 0
X_2_28 0
X_3_28 0
X_4_28 0
X_5_28 0
X_6_28 1
X_0_30 0
X_1_30 0
X_2_30 0
X_3_30 0
X_4_30 0
X_5_30 0
X_6_30 1
X_0_44 0
X_1_44 0
X_2_44 0
X_3_44 0
X_4_44 0
X_5_44 0
X_6_44 1
X_0_46 0
X_1_46 1
X_2_46 0
X_3_46 0
X_4_46 0
X_5_46 0
X_6_46 1
X_0_50 0
X_1_50 0
X_2_50 0
X_3_50 0
X_4_50 1
X_5_50 0
X_6_50 1
X_0_52 0
X_1_52 0
X_2_52 0
X_3_52 1
X_4_52 0
X_5_52 1
X_6_52 1
X_0_54 0
X_1_54 0
X_2_54 0
X_3_54 0
X_4_54 0
X_5_54 0
X_6_54 1
X_0_58 0
X_1_58 0
X_2_58 0
X_3_58 0
X_4_58 0
X_5_58 0
X_6_58 1
theta 0
